 vasp.5.4.1 24Jun15 (build Jun 30 2015 11:48:55) complex

 executed on           IFC91_ompi date 2017.09.15  03:15:10

 INCAR:
 POTCAR:    PAW_PBE Na_pv 05Jan2001
 POTCAR:   PAW_PBE Au 06Sep2000
 POTCAR:   PAW_PBE F 08Apr2002
 POTCAR:    PAW_PBE Na_pv 05Jan2001
   VRHFIN =Na: p6s1

   TITEL  = PAW_PBE Na_pv 05Jan2001
   POMASS =   22.990; ZVAL   =    7.000    mass and valenz
   ENMAX  =  259.561; ENMIN  =  194.671 eV
   QCUT   =   -4.368; QGAM   =    8.735    optimization parameters

   Description
     l     E      TYP  RCUT    TYP  RCUT
     1   .000     23  2.000
     1   .500     23  2.000
     0   .000     23  2.200
     0  1.000     23  2.200
     2  -.100     23  2.000

 POTCAR:   PAW_PBE Au 06Sep2000
   VRHFIN =Au: s1d10

   TITEL  = PAW_PBE Au 06Sep2000
   POMASS =  196.966; ZVAL   =   11.000    mass and valenz
   ENMAX  =  229.948; ENMIN  =  172.461 eV
   QCUT   =   -4.111; QGAM   =    8.222    optimization parameters

[...]

 POTCAR:   PAW_PBE F 08Apr2002
   VRHFIN =F: s2p5

   TITEL  = PAW_PBE F 08Apr2002
   POMASS =   18.998; ZVAL   =    7.000    mass and valenz
   ENMAX  =  400.000; ENMIN  =  300.000 eV
   QCUT   =   -5.545; QGAM   =   11.091    optimization parameters

   Description
     l     E      TYP  RCUT    TYP  RCUT
     0   .000     23  1.200
     0  -.700     23  1.200
     1   .000     23  1.520
     1   .100     23  1.520
     2   .000      7  1.500

 Optimization of the real space projectors (new method)

 maximal supplied QI-value         = 17.01
 optimisation between [QCUT,QGAM] = [ 11.57, 23.30] = [ 37.45,152.03] Ry
 Optimized for a Real-space Cutoff    1.25 Angstroem

   l    n(q)    QCUT    max X(q) W(low)/X(q) W(high)/X(q)  e(spline)
   1      8    11.565     5.105    0.28E-04    0.12E-04    0.25E-07
   1      8    11.565     6.428    0.22E-03    0.17E-03    0.77E-07
   0      9    11.565    36.712    0.15E-04    0.28E-04    0.12E-07
   0      9    11.565    84.879    0.99E-04    0.22E-03    0.11E-06
 Optimization of the real space projectors (new method)

[...]

   l    n(q)    QCUT    max X(q) W(low)/X(q) W(high)/X(q)  e(spline)
   2      9    11.641     3.714    0.29E-04    0.26E-05    0.61E-07
   2      9    11.641    30.244    0.92E-04    0.19E-03    0.70E-06
   0     10    11.641    12.875    0.11E-04    0.75E-05    0.20E-07
   0     10    11.641    62.664    0.13E-03    0.12E-03    0.45E-06
   1     10    11.641     6.953    0.24E-04    0.22E-04    0.57E-07
   1     10    11.641    10.039    0.12E-03    0.51E-04    0.21E-06
 Optimization of the real space projectors (new method)

 maximal supplied QI-value         = 24.76
 optimisation between [QCUT,QGAM] = [ 11.64, 23.27] = [ 37.91,151.63] Ry
 Optimized for a Real-space Cutoff    1.04 Angstroem

   l    n(q)    QCUT    max X(q) W(low)/X(q) W(high)/X(q)  e(spline)
   0      7    11.635     4.906    0.48E-04    0.15E-03    0.36E-07
   0      7    11.635     5.365    0.12E-03    0.48E-03    0.17E-06
   1      7    11.635     2.511    0.70E-04    0.18E-03    0.19E-07
   1      7    11.635     3.801    0.23E-03    0.36E-03    0.19E-06
  PAW_PBE Na_pv 05Jan2001               :
 PAW_PBE Au 06Sep2000                   :
 PAW_PBE F 08Apr2002                    :

 POSCAR: Na3 Au1 F6
  positions in direct lattice
  velocities in cartesian coordinates
 exchange correlation table for  LEXCH =        8
   RHO(1)=    0.500       N(1)  =     2000
   RHO(2)=  100.500       N(2)  =     4000

 ion  position               nearest neighbor table
   1  0.250  0.250  0.250-
   2  0.750  0.750  0.750-
   3  0.500  0.500  0.500-   5 2.19   7 2.19   6 2.19  10 2.19   9 2.19   8 2.19
   4  0.000  0.000  0.000-   6 2.13  10 2.13   7 2.13   5 2.13   9 2.13   8 2.13
   5  0.246  0.754  0.246-   4 2.13   3 2.19
   6  0.754  0.754  0.246-   4 2.13   3 2.19
   7  0.754  0.246  0.754-   4 2.13   3 2.19
   8  0.754  0.246  0.246-   4 2.13   3 2.19
   9  0.246  0.754  0.754-   4 2.13   3 2.19
  10  0.246  0.246  0.754-   4 2.13   3 2.19

  LATTYP: Found a face centered cubic cell.
 ALAT       =     8.6275097471

  Lattice vectors:

 A1 = (   6.1005705786,  -0.0000001630,  -0.0000001153)
 A2 = (   3.0502855056,   5.2832490567,  -0.0000000576)
 A3 = (   3.0502855056,   1.7610829645,   4.9810949945)

Analysis of symmetry for initial positions (statically):
 Subroutine PRICEL returns:
 Original cell was already a primitive cell.

 Routine SETGRP: Setting up the symmetry group for a
 face centered cubic supercell.

 Subroutine GETGRP returns: Found 48 space group operations
 (whereof 48 operations were pure point group operations)
 out of a pool of 48 trial point group operations.

The static configuration has the point symmetry O_h .

Analysis of symmetry for dynamics (positions and initial velocities):
 Subroutine PRICEL returns:
 Original cell was already a primitive cell.

 Routine SETGRP: Setting up the symmetry group for a
 face centered cubic supercell.

 Subroutine GETGRP returns: Found 48 space group operations
 (whereof 48 operations were pure point group operations)
 out of a pool of 48 trial point group operations.

The dynamic configuration has the point symmetry O_h .

Analysis of magnetic symmetry:
 Subroutine PRICEL returns:
 Original cell was already a primitive cell.

 Subroutine MAGSYM returns: Found 48 space group operations
 (whereof 48 operations were pure point group operations)
 out of a pool of 48 trial space group operations
 (whereof 48 operations were pure point group operations)
 and found also     1 'primitive' translations

The magnetic configuration has the point symmetry O_h .

 KPOINTS: k-points

Automatic generation of k-mesh.
Space group operators:
 irot       det(A)        alpha          n_x          n_y          n_z        tau_x        tau_y        tau_z
    1     1.000000     0.000002     1.000000     0.000000     0.000000     0.000000     0.000000     0.000000
    2    -1.000000     0.000002     1.000000     0.000000     0.000000     0.000000     0.000000     0.000000
    3     1.000000   120.000000    -0.816497    -0.471404    -0.333333     0.000000     0.000000     0.000000
    4    -1.000000   120.000000    -0.816497    -0.471404    -0.333333     0.000000     0.000000     0.000000
    5     1.000000   120.000000     0.816497     0.471404     0.333333     0.000000     0.000000     0.000000
    6    -1.000000   120.000000     0.816497     0.471404     0.333333     0.000000     0.000000     0.000000
    7     1.000000    90.000000    -0.707107    -0.408248     0.577350     0.000000     0.000000     0.000000
    8    -1.000000    90.000000    -0.707107    -0.408248     0.577350     0.000000     0.000000     0.000000
    9     1.000000   179.999999     1.000000     0.000000     0.000000     0.000000     0.000000     0.000000
   10    -1.000000   179.999999     1.000000     0.000000     0.000000     0.000000     0.000000     0.000000
   11     1.000000    90.000000     0.707107    -0.408248     0.577350     0.000000     0.000000     0.000000
   12    -1.000000    90.000000     0.707107    -0.408248     0.577350     0.000000     0.000000     0.000000
   13     1.000000   179.999999     0.707107     0.408248    -0.577350     0.000000     0.000000     0.000000
   14    -1.000000   179.999999     0.707107     0.408248    -0.577350     0.000000     0.000000     0.000000
   15     1.000000   120.000000     0.816497    -0.471405    -0.333333     0.000000     0.000000     0.000000
   16    -1.000000   120.000000     0.816497    -0.471405    -0.333333     0.000000     0.000000     0.000000
   17     1.000000   120.000000     0.000000    -0.942809     0.333333     0.000000     0.000000     0.000000
   18    -1.000000   120.000000     0.000000    -0.942809     0.333333     0.000000     0.000000     0.000000
   19     1.000000    90.000000     0.707107     0.408248    -0.577350     0.000000     0.000000     0.000000
   20    -1.000000    90.000000     0.707107     0.408248    -0.577350     0.000000     0.000000     0.000000
   21     1.000000    90.000000     0.000000    -0.816497    -0.577350     0.000000     0.000000     0.000000
   22    -1.000000    90.000000     0.000000    -0.816497    -0.577350     0.000000     0.000000     0.000000
   23     1.000000   179.999999     0.500000     0.866025     0.000000     0.000000     0.000000     0.000000
   24    -1.000000   179.999999     0.500000     0.866025     0.000000     0.000000     0.000000     0.000000
   25     1.000000   120.000000     0.000000     0.942809    -0.333333     0.000000     0.000000     0.000000
   26    -1.000000   120.000000     0.000000     0.942809    -0.333333     0.000000     0.000000     0.000000
   27     1.000000   120.000000     0.000000     0.000000    -1.000000     0.000000     0.000000     0.000000
   28    -1.000000   120.000000     0.000000     0.000000    -1.000000     0.000000     0.000000     0.000000
   29     1.000000   180.000000     0.000000    -0.816497    -0.577350     0.000000     0.000000     0.000000
   30    -1.000000   180.000000     0.000000    -0.816497    -0.577350     0.000000     0.000000     0.000000
   31     1.000000    90.000000    -0.707107     0.408248    -0.577350     0.000000     0.000000     0.000000
   32    -1.000000    90.000000    -0.707107     0.408248    -0.577350     0.000000     0.000000     0.000000
   33     1.000000   180.000000     0.500000     0.288675     0.816497     0.000000     0.000000     0.000000
   34    -1.000000   180.000000     0.500000     0.288675     0.816497     0.000000     0.000000     0.000000
   35     1.000000    90.000000     0.000000     0.816497     0.577350     0.000000     0.000000     0.000000
   36    -1.000000    90.000000     0.000000     0.816497     0.577350     0.000000     0.000000     0.000000
   37     1.000000   120.000000    -0.816497     0.471405     0.333333     0.000000     0.000000     0.000000
   38    -1.000000   120.000000    -0.816497     0.471405     0.333333     0.000000     0.000000     0.000000
   39     1.000000   179.999999    -0.707107     0.408248    -0.577350     0.000000     0.000000     0.000000
   40    -1.000000   179.999999    -0.707107     0.408248    -0.577350     0.000000     0.000000     0.000000
   41     1.000000   120.000000     0.000000     0.000000     1.000000     0.000000     0.000000     0.000000
   42    -1.000000   120.000000     0.000000     0.000000     1.000000     0.000000     0.000000     0.000000
   43     1.000000   179.999999     0.000000    -0.577350     0.816497     0.000000     0.000000     0.000000
   44    -1.000000   179.999999     0.000000    -0.577350     0.816497     0.000000     0.000000     0.000000
   45     1.000000   179.999999    -0.500000     0.866025     0.000000     0.000000     0.000000     0.000000
   46    -1.000000   179.999999    -0.500000     0.866025     0.000000     0.000000     0.000000     0.000000
   47     1.000000   179.999999    -0.500000     0.288675     0.816497     0.000000     0.000000     0.000000
   48    -1.000000   179.999999    -0.500000     0.288675     0.816497     0.000000     0.000000     0.000000

 Subroutine IBZKPT returns following result:

 Found     47 irreducible k-points:

 Following reciprocal coordinates:
            Coordinates               Weight
[...]
 k-point  5 :   0.4000 0.0000 0.0000  plane waves:    4332
 k-point  6 :   0.5000 0.0000 0.0000  plane waves:    4338
 k-point  7 :   0.1000 0.1000 0.0000  plane waves:    4344
 k-point  8 :   0.2000 0.1000 0.0000  plane waves:    4349
 k-point  9 :   0.3000 0.1000 0.0000  plane waves:    4327
 k-point 10 :   0.4000 0.1000 0.0000  plane waves:    4327
 k-point 11 :   0.5000 0.1000 0.0000  plane waves:    4333
 k-point 12 :  -0.4000 0.1000 0.0000  plane waves:    4320
 k-point 13 :  -0.3000 0.1000 0.0000  plane waves:    4305
 k-point 14 :  -0.2000 0.1000 0.0000  plane waves:    4325
 k-point 15 :  -0.1000 0.1000 0.0000  plane waves:    4345
 k-point 16 :   0.2000 0.2000 0.0000  plane waves:    4332
 k-point 17 :   0.3000 0.2000 0.0000  plane waves:    4318
 k-point 18 :   0.4000 0.2000 0.0000  plane waves:    4315
 k-point 19 :   0.5000 0.2000 0.0000  plane waves:    4325
 k-point 20 :  -0.4000 0.2000 0.0000  plane waves:    4339
 k-point 21 :  -0.3000 0.2000 0.0000  plane waves:    4336
 k-point 22 :  -0.2000 0.2000 0.0000  plane waves:    4315
 k-point 23 :   0.3000 0.3000 0.0000  plane waves:    4316
 k-point 24 :   0.4000 0.3000 0.0000  plane waves:    4336
 k-point 25 :   0.5000 0.3000 0.0000  plane waves:    4313
 k-point 26 :  -0.4000 0.3000 0.0000  plane waves:    4315
 k-point 27 :  -0.3000 0.3000 0.0000  plane waves:    4321
 k-point 28 :   0.4000 0.4000 0.0000  plane waves:    4308
 k-point 29 :   0.5000 0.4000 0.0000  plane waves:    4307
 k-point 30 :  -0.4000 0.4000 0.0000  plane waves:    4320
 k-point 31 :   0.5000 0.5000 0.0000  plane waves:    4328
 k-point 32 :   0.3000 0.2000 0.1000  plane waves:    4341
 k-point 33 :   0.4000 0.2000 0.1000  plane waves:    4322
 k-point 34 :   0.5000 0.2000 0.1000  plane waves:    4320
 k-point 35 :  -0.4000 0.2000 0.1000  plane waves:    4328
 k-point 36 :   0.4000 0.3000 0.1000  plane waves:    4329
 k-point 37 :   0.5000 0.3000 0.1000  plane waves:    4313
 k-point 38 :  -0.4000 0.3000 0.1000  plane waves:    4325
 k-point 39 :  -0.3000 0.3000 0.1000  plane waves:    4325
 k-point 40 :  -0.2000 0.3000 0.1000  plane waves:    4323
 k-point 41 :   0.5000 0.4000 0.1000  plane waves:    4308
 k-point 42 :  -0.4000 0.4000 0.1000  plane waves:    4321
 k-point 43 :  -0.3000 0.4000 0.1000  plane waves:    4323
 k-point 44 :  -0.4000 0.5000 0.1000  plane waves:    4310
 k-point 45 :  -0.4000 0.4000 0.2000  plane waves:    4302
 k-point 46 :  -0.3000 0.4000 0.2000  plane waves:    4318
 k-point 47 :  -0.3000 0.5000 0.2000  plane waves:    4306

 maximum and minimum number of plane-waves per node :      4349     4285

 maximum number of plane-waves:      4349
 maximum index in each direction:
   IXMAX=   11   IYMAX=   11   IZMAX=   11
   IXMIN=  -11   IYMIN=  -11   IZMIN=  -11

 NGX is ok and might be reduce to  46
 NGY is ok and might be reduce to  46
 NGZ is ok and might be reduce to  46

 serial   3D FFT for wavefunctions
 parallel 3D FFT for charge:
    minimum data exchange during FFTs selected (reduces bandwidth)

 Broyden mixing: mesh for mixing (old mesh)
   NGX = 23   NGY = 23   NGZ = 23
  (NGX  = 96   NGY  = 96   NGZ  = 96)
  gives a total of  12167 points

 initial charge density was supplied:
 charge density of overlapping atoms calculated
 number of electron      74.0000000 magnetization       6.0000000
 keeping initial charge density in first step

 Maximum index for non-local projection operator         9213
 Maximum index for augmentation-charges        10143 (set IRDMAX)

 First call to EWALD:  gamma=   0.326
 Maximum number of real-space cells 3x 3x 3
 Maximum number of reciprocal cells 3x 3x 3

 FEWALD executed in parallel

----------------------------------------- Iteration    1(   1)  ---------------------------------------

 BZINTS: Fermi energy: 18.116904; 74.000000 electrons
         Band energy:  16.777688;  BLOECHL correction: -0.265519

 eigenvalue-minimisations  :  9040
 total energy-change (2. order) : 0.8956881E+03  (-0.3814241E+04)
 number of electron      74.0000000 magnetization       6.0000000
 augmentation part       74.0000000 magnetization       6.0000000

 Free energy of the ion-electron system (eV)
  alpha Z        PSCENC =       201.19173122
  Ewald energy   TEWEN  =     -4234.08523527
  -Hartree energ DENC   =     -2306.74052278
  -exchange      EXHF   =         0.00000000
  -V(xc)+E(xc)   XCENC  =       310.52390878
  PAW double counting   =      4714.94968851    -4987.87985249
  entropy T*S    EENTRO =         0.00000000
  eigenvalues    EBANDS =        16.77768765
  atomic energy  EATOM  =      7180.95068065
  Solvation  Ediel_sol  =         0.00000000
  free energy    TOTEN  =       895.68808627 eV

  energy without entropy =      895.68808627  energy(sigma->0) =      895.68808627

[...]

 BZINTS: Fermi energy:  3.380656; 74.000000 electrons
         Band energy:-797.725095;  BLOECHL correction: -0.180136

 eigenvalue-minimisations  :  9208
 total energy-change (2. order) :-0.8145028E+03  (-0.7708075E+03)
 number of electron      74.0000000 magnetization       6.0000000
 augmentation part       74.0000000 magnetization       6.0000000

[...]

 Broyden mixing:
  rms(total) = 0.20473E+01    rms(broyden)= 0.20471E+01
  rms(prec ) = 0.37361E+01
  weight for this iteration     100.00

[...]

 eigenvalues of (default mixing * dielectric matrix)
  average eigenvalue GAMMA=   0.6925
  0.6925

[...]

 eigenvalue-minimisations  : 11064
 total energy-change (2. order) :-0.1312849E-04  (-0.8252427E-04)
 number of electron      74.0000001 magnetization       2.0001167
 augmentation part       25.0976949 magnetization       0.9949697

[...]

 Broyden mixing:
  rms(total) = 0.25728E-02    rms(broyden)= 0.25711E-02
  rms(prec ) = 0.44625E-02
  weight for this iteration     100.00

 eigenvalues of (default mixing * dielectric matrix)
  average eigenvalue GAMMA=   1.2788
  2.8943  2.3293  1.1037  0.8242  0.8242  0.9035  0.7149  0.6366

[...]

----------------------------------------- Iteration    1(  14)  ---------------------------------------

[...]

 eigenvalue-minimisations  :  9959
 total energy-change (2. order) : 0.8427110E-05  (-0.6624354E-05)
 number of electron      74.0000001 magnetization       1.9998384
 augmentation part       25.0986659 magnetization       0.9948611

 Free energy of the ion-electron system (eV)
  alpha Z        PSCENC =       201.19173122
  Ewald energy   TEWEN  =     -4234.08523527
  -Hartree energ DENC   =     -2379.05229985
  -exchange      EXHF   =         0.00000000
  -V(xc)+E(xc)   XCENC  =       315.77443329
  PAW double counting   =      4900.55132643    -5177.33461182
  entropy T*S    EENTRO =         0.00000000
  eigenvalues    EBANDS =      -845.56892469
  atomic energy  EATOM  =      7180.95068065
  Solvation  Ediel_sol  =         0.00000000
  free energy    TOTEN  =       -37.57290005 eV

  energy without entropy =      -37.57290005  energy(sigma->0) =      -37.57290005

 average (electrostatic) potential at core
  the test charge radii are     0.9254  1.2098  0.7167
  (the norm of the test charge is              1.0000)
       1 -57.1862       2 -57.1862       3 -54.6910       4 -51.8604       5 -78.8046
       6 -78.8046       7 -78.8046       8 -78.8046       9 -78.8046      10 -78.8046

 E-fermi :  -0.6525     XC(G=0):  -8.3504     alpha+bet : -6.8477

 spin component 1

 k-point     1 :       0.0000    0.0000    0.0000
  band No.  band energies     occupation
      1     -23.5504      1.00000
      2     -23.5504      1.00000
      3     -23.5504      1.00000
      4     -23.5478      1.00000
      5     -23.5478      1.00000
      6     -23.5478      1.00000
      7     -22.6102      1.00000
      8     -22.4208      1.00000
      9     -22.4208      1.00000
     10     -22.4208      1.00000
     11     -22.2787      1.00000
     12     -22.2787      1.00000
     13     -20.9397      1.00000
     14     -20.9397      1.00000
     15     -20.9397      1.00000
     16      -6.6681      1.00000
     17      -6.6681      1.00000
     18      -6.4907      1.00000
     19      -5.5704      1.00000
     20      -5.5704      1.00000
     21      -5.5704      1.00000
     22      -4.7905      1.00000
     23      -4.7905      1.00000
     24      -4.7905      1.00000
     25      -3.3107      1.00000
     26      -3.3107      1.00000
     27      -3.3107      1.00000
     28      -3.2857      1.00000
     29      -3.2857      1.00000
     30      -3.2857      1.00000
     31      -2.8657      1.00000
     32      -2.8657      1.00000
     33      -2.8656      1.00000
     34      -2.6144      1.00000
     35      -2.6144      1.00000
     36      -2.6144      1.00000
     37      -0.6601      1.00000
     38      -0.6601      1.00000
     39       2.0723      0.00000
     40       6.2746      0.00000
     41       6.4055      0.00000
     42       6.5433      0.00000
     43       8.1295      0.00000
     44       8.8133      0.00000
     45       8.8133      0.00000
     46       8.8141      0.00000
     47       8.8395      0.00000
     48       8.8427      0.00000

[...]

 spin component 2

[...]

 k-point    47 :      -0.3000    0.5000    0.2000
  band No.  band energies     occupation
      1     -23.5580      1.00000
      2     -23.5562      1.00000
      3     -23.5525      1.00000
      4     -23.5504      1.00000
      5     -23.5480      1.00000
      6     -23.5478      1.00000
      7     -22.2966      1.00000
      8     -22.1765      1.00000
      9     -22.1737      1.00000
     10     -22.1039      1.00000
     11     -22.0806      1.00000
     12     -21.9629      1.00000
     13     -20.9081      1.00000
     14     -20.8919      1.00000
     15     -20.8918      1.00000
     16      -6.1340      1.00000
     17      -5.8920      1.00000
     18      -5.6561      1.00000
     19      -5.2710      1.00000
     20      -5.1653      1.00000
     21      -5.0292      1.00000
     22      -4.2638      1.00000
     23      -4.1884      1.00000
     24      -4.1361      1.00000
     25      -3.5954      1.00000
     26      -3.5170      1.00000
     27      -3.3922      1.00000
     28      -3.3528      1.00000
     29      -3.2776      1.00000
     30      -3.2562      1.00000
     31      -3.2427      1.00000
     32      -2.9775      1.00000
     33      -2.8444      1.00000
     34      -2.1389      1.00000
     35      -2.0123      1.00000
     36      -1.8919      1.00000
     37       0.0404      0.00000
     38       0.3385      0.00000
     39       4.5973      0.00000
     40       5.1632      0.00000
     41       5.4977      0.00000
     42       6.4498      0.00000
     43       6.4563      0.00000
     44       6.4754      0.00000
     45       8.2889      0.00000
     46       8.2944      0.00000
     47       8.9351      0.00000
     48       9.1931      0.00000

 soft charge-density along one line, spin component           1
         0         1         2         3         4         5         6         7         8         9
 total charge-density along one line

 soft charge-density along one line, spin component           2
         0         1         2         3         4         5         6         7         8         9
 total charge-density along one line

------------------------ aborting loop because EDIFF is reached ----------------------------------------

 total charge

# of ion     s       p       d       tot
  1        0.011   5.952   0.000   5.963
  2        0.011   5.952   0.000   5.963
  3        0.048   6.007   0.000   6.055
  4        0.421   0.388   8.461   9.270
  5        1.737   4.313   0.000   6.051
  6        1.738   4.306   0.000   6.044
  7        1.737   4.313   0.000   6.051
  8        1.737   4.313   0.000   6.050
  9        1.737   4.313   0.000   6.050
 10        1.738   4.306   0.000   6.044
tot       10.916  44.164   8.461  63.541

 magnetization (x)

[...]

  FORCE on cell =-STRESS in cart. coord.  units (eV):
  Direction    XX          YY          ZZ          XY          YZ          ZX
  Alpha Z   201.19173   201.19173   201.19173
  Ewald   -1411.36429 -1411.36430 -1411.36429     0.00001    -0.00001     0.00001
  Hartree   793.04847   793.04847   793.04847     0.00001     0.00000     0.00001
  E(xc)    -403.96795  -403.96805  -403.96807     0.00009     0.00003     0.00006
  Local    -440.63531  -440.63553  -440.63558     0.00015     0.00008     0.00011
  n-local  -337.72521  -337.97444  -338.04275    -0.02312    -0.01363    -0.26440
  augment   327.34751   327.34773   327.34778    -0.00019    -0.00008    -0.00013
  Kinetic  1271.09853  1272.66117  1273.20186     0.41362    -0.03189     1.46848
  Fock        0.00000     0.00000     0.00000     0.00000     0.00000     0.00000
  Total       0.02647     0.02647     0.02647     0.00000     0.00000     0.00000
  in kB       0.26414     0.26414     0.26414     0.00000     0.00000     0.00000

 VOLUME and BASIS-vectors are now :
  energy-cutoff  :      520.00
  volume of cell :      160.54
      direct lattice vectors                 reciprocal lattice vectors
     6.100570579 -0.000000163 -0.000000115     0.163919090 -0.094638739 -0.066919694
     3.050285506  5.283249057 -0.000000058     0.000000004  0.189277464 -0.066919689
     3.050285506  1.761082965  4.981094994     0.000000004  0.000000000  0.200759068

  length of vectors
     6.100570579  6.100570650  6.100570647     0.200759070  0.200759068  0.200759068

 FORCES acting on ions
    electron-ion (+dipol)            ewald-force                    non-local-force                 convergence-correction
   -.131E-05 -.884E-06 -.834E-06   0.326E-05 -.114E-05 -.624E-06   -.635E-21 0.953E-21 0.381E-20   0.386E-06 0.301E-06 0.208E-06
   0.131E-05 0.884E-06 0.834E-06   -.326E-05 0.114E-05 0.624E-06   -.106E-20 -.159E-21 -.371E-20   -.386E-06 -.301E-06 -.208E-06
   -.596E-12 -.218E-11 -.130E-11   0.711E-13 0.284E-13 0.426E-13   -.159E-21 -.159E-21 0.000E+00   -.734E-13 -.126E-13 -.243E-13
   -.373E-13 -.316E-13 -.334E-14   -.142E-12 -.284E-13 0.426E-13   0.159E-21 0.662E-23 0.000E+00   0.128E-13 0.189E-13 0.515E-14
   -.562E+02 0.324E+02 -.459E+02   0.645E+02 -.373E+02 0.527E+02   -.837E+01 0.483E+01 -.683E+01   -.211E-02 0.122E-02 -.172E-02
   0.562E+02 0.324E+02 -.459E+02   -.645E+02 -.373E+02 0.527E+02   0.837E+01 0.483E+01 -.683E+01   0.211E-02 0.122E-02 -.172E-02
   0.562E+02 -.324E+02 0.459E+02   -.645E+02 0.373E+02 -.527E+02   0.837E+01 -.483E+01 0.683E+01   0.211E-02 -.122E-02 0.172E-02
   -.404E-04 -.649E+02 -.459E+02   0.219E-05 0.745E+02 0.527E+02   -.594E-06 -.967E+01 -.683E+01   -.716E-06 -.244E-02 -.172E-02
   0.404E-04 0.649E+02 0.459E+02   -.219E-05 -.745E+02 -.527E+02   0.594E-06 0.967E+01 0.683E+01   0.716E-06 0.244E-02 0.172E-02
   -.562E+02 -.324E+02 0.459E+02   0.645E+02 0.373E+02 -.527E+02   -.837E+01 -.483E+01 0.683E+01   -.211E-02 -.122E-02 0.172E-02
   0.133E-11 -.968E-11 -.175E-10   0.284E-13 -.142E-13 0.213E-13   0.000E+00 0.355E-14 -.178E-14   -.811E-13 -.135E-12 -.148E-12

 POSITION                                       TOTAL-FORCE (eV/Angst)
      3.05029      1.76108      1.24527         0.000000      0.000000      0.000000
      9.15086      5.28325      3.73582         0.000000      0.000000      0.000000
      6.10057      3.52217      2.49055         0.000000      0.000000      0.000000
      0.00000      0.00000      0.00000         0.000000      0.000000      0.000000
      4.55386      4.41516      1.22766        -0.001486      0.000858     -0.001214
      7.64728      4.41516      1.22766         0.001486      0.000858     -0.001214
      7.64728      2.62917      3.75343         0.001486     -0.000858      0.001214
      6.10057      1.73618      1.22766         0.000000     -0.001716     -0.001214
      6.10057      5.30815      3.75343         0.000000      0.001716      0.001214
      4.55386      2.62917      3.75343        -0.001486     -0.000858      0.001214
    total drift:                                0.000000      0.000000      0.000000

  FREE ENERGIE OF THE ION-ELECTRON SYSTEM (eV)
  free  energy   TOTEN  =       -37.57290005 eV

  energy  without entropy=      -37.57290005  energy(sigma->0) =      -37.57290005

 total charge

[...]

 magnetization (x)

# of ion     s       p       d       tot
  1        0.000   0.000   0.000   0.000
  2        0.000   0.000   0.000   0.000
  3        0.005   0.007   0.000   0.012
  4       -0.008  -0.008   1.073   1.057
  5        0.004   0.142   0.000   0.146
  6        0.004   0.134   0.000   0.138
  7        0.004   0.142   0.000   0.146
  8        0.004   0.139   0.000   0.143
  9        0.004   0.139   0.000   0.143
 10        0.004   0.134   0.000   0.138
tot        0.022   0.829   1.073   1.924

 BZINTS: Fermi energy: -0.652500; 74.000000 electrons
         Band energy:-845.568925;  BLOECHL correction:  0.000000