 vasp.5.4.1 24Jun15 (build Jun 30 2015 11:48:55) complex

 executed on           IFC91_ompi date 2017.09.15  11:10:10

 INCAR:
 POTCAR:   PAW_PBE Rb_sv 06Sep2000
 POTCAR:   PAW_PBE Ta_pv 07Sep2000
 POTCAR:   PAW_PBE Tl_d 06Sep2000
 POTCAR:   PAW_PBE F 08Apr2002
 POTCAR:   PAW_PBE Rb_sv 06Sep2000
   VRHFIN =Rb: 4s4p5s

   TITEL  = PAW_PBE Rb_sv 06Sep2000
   POMASS =   85.468; ZVAL   =    9.000    mass and valenz
   ENMAX  =  220.022; ENMIN  =  165.017 eV
   QCUT   =   -4.021; QGAM   =    8.043    optimization parameters

   Description
     l     E      TYP  RCUT    TYP  RCUT
     0   .000     23  2.500
     0   .000     23  2.500
     1   .000     23  2.500
     1   .000     23  2.500
     2   .000     23  2.500

 POTCAR:   PAW_PBE Ta_pv 07Sep2000
   VRHFIN =Ta:  5p6s5d

   TITEL  = PAW_PBE Ta_pv 07Sep2000
   POMASS =  180.948; ZVAL   =   11.000    mass and valenz
   ENMAX  =  223.675; ENMIN  =  167.756 eV
   QCUT   =   -4.055; QGAM   =    8.109    optimization parameters

[...]

 POTCAR:   PAW_PBE Tl_d 06Sep2000
   VRHFIN =Tl:

   TITEL  = PAW_PBE Tl_d 06Sep2000
   POMASS =  204.380; ZVAL   =   13.000    mass and valenz
   ENMAX  =  237.063; ENMIN  =  177.797 eV
   QCUT   =   -4.174; QGAM   =    8.348    optimization parameters

[...]

 POTCAR:   PAW_PBE F 08Apr2002
   VRHFIN =F: s2p5

   TITEL  = PAW_PBE F 08Apr2002
   POMASS =   18.998; ZVAL   =    7.000    mass and valenz
   ENMAX  =  400.000; ENMIN  =  300.000 eV
   QCUT   =   -5.545; QGAM   =   11.091    optimization parameters

   Description
     l     E      TYP  RCUT    TYP  RCUT
     0   .000     23  1.200
     0  -.700     23  1.200
     1   .000     23  1.520
     1   .100     23  1.520
     2   .000      7  1.500

 Optimization of the real space projectors (new method)

 maximal supplied QI-value         = 15.12
 optimisation between [QCUT,QGAM] = [ 11.64, 23.28] = [ 37.95,151.78] Ry
 Optimized for a Real-space Cutoff    1.63 Angstroem

   l    n(q)    QCUT    max X(q) W(low)/X(q) W(high)/X(q)  e(spline)
   0     11    11.641     6.423    0.14E-04    0.17E-05    0.17E-07
   0     11    11.641    16.042    0.40E-04    0.49E-05    0.17E-06
   1     11    11.641     3.765    0.31E-05    0.35E-05    0.25E-07
   1     11    11.641    34.154    0.10E-03    0.47E-04    0.48E-06
   2     10    11.641    16.736    0.83E-05    0.11E-04    0.75E-07
 Optimization of the real space projectors (new method)

[...]

   l    n(q)    QCUT    max X(q) W(low)/X(q) W(high)/X(q)  e(spline)
   2      9    11.641     4.410    0.58E-04    0.14E-04    0.85E-07
   2      9    11.641     8.929    0.22E-03    0.82E-04    0.20E-06
   0     10    11.641     9.243    0.13E-04    0.79E-06    0.68E-08
   0     10    11.641    14.355    0.61E-04    0.23E-04    0.12E-06
   1     10    11.641    10.282    0.18E-05    0.13E-04    0.19E-07
   1     10    11.641    43.746    0.18E-04    0.83E-04    0.13E-06
 Optimization of the real space projectors (new method)

 maximal supplied QI-value         = 24.76
 optimisation between [QCUT,QGAM] = [ 11.64, 23.27] = [ 37.91,151.63] Ry
 Optimized for a Real-space Cutoff    1.04 Angstroem

   l    n(q)    QCUT    max X(q) W(low)/X(q) W(high)/X(q)  e(spline)
   0      7    11.635     4.906    0.48E-04    0.15E-03    0.36E-07
   0      7    11.635     5.365    0.12E-03    0.48E-03    0.17E-06
   1      7    11.635     2.511    0.70E-04    0.18E-03    0.19E-07
   1      7    11.635     3.801    0.23E-03    0.36E-03    0.19E-06
 PAW_PBE Rb_sv 06Sep2000                :
 PAW_PBE Ta_pv 07Sep2000                :
 PAW_PBE Tl_d 06Sep2000                 :
 PAW_PBE F 08Apr2002                    :

 POSCAR: Rb2 Ta1 Tl1 F6
  positions in direct lattice
  velocities in cartesian coordinates
 exchange correlation table for  LEXCH =        8
   RHO(1)=    0.500       N(1)  =     2000
   RHO(2)=  100.500       N(2)  =     4000

 ion  position               nearest neighbor table
   1  0.250  0.250  0.250-   7 3.41   6 3.41   8 3.41   7 3.41   6 3.41   8 3.41   9 3.41   9 3.41
                            10 3.41   5 3.41  10 3.41   5 3.41   3 4.16   4 4.16   4 4.16   3 4.16
   2  0.750  0.750  0.750-   5 3.41  10 3.41   9 3.41   5 3.41  10 3.41   9 3.41   8 3.41   8 3.41
                             6 3.41   7 3.41   6 3.41   7 3.41   3 4.16   4 4.16   4 4.16   3 4.16
   3  0.000  0.000  0.000-   6 2.06  10 2.06   7 2.06   5 2.06   9 2.06   8 2.06   2 4.16   1 4.16
                             1 4.16   2 4.16   1 4.16   2 4.16   2 4.16   1 4.16
   4  0.500  0.500  0.500-   6 2.74  10 2.74   7 2.74   5 2.74   9 2.74   8 2.74   1 4.16   2 4.16
                             2 4.16   1 4.16   2 4.16   1 4.16   2 4.16   1 4.16
   5  0.215  0.785  0.215-   3 2.06   4 2.74   2 3.41   2 3.41   1 3.41   1 3.41
   6  0.785  0.785  0.215-   3 2.06   4 2.74   1 3.41   1 3.41   2 3.41   2 3.41
   7  0.785  0.215  0.785-   3 2.06   4 2.74   1 3.41   1 3.41   2 3.41   2 3.41
   8  0.785  0.215  0.215-   3 2.06   4 2.74   1 3.41   1 3.41   2 3.41   2 3.41
   9  0.215  0.785  0.785-   3 2.06   4 2.74   2 3.41   2 3.41   1 3.41   1 3.41
  10  0.215  0.215  0.785-   3 2.06   4 2.74   2 3.41   2 3.41   1 3.41   1 3.41

  LATTYP: Found a face centered cubic cell.
 ALAT       =     9.6012001769

  Lattice vectors:

 A1 = (   6.7890735986,  -0.0000001319,  -0.0000000933)
 A2 = (   3.3945370829,   5.8795102277,  -0.0000000466)
 A3 = (   3.3945370829,   1.9598366986,   5.5432554087)

Analysis of symmetry for initial positions (statically):
 Subroutine PRICEL returns:
 Original cell was already a primitive cell.

 Routine SETGRP: Setting up the symmetry group for a
 face centered cubic supercell.

 Subroutine GETGRP returns: Found 48 space group operations
 (whereof 48 operations were pure point group operations)
 out of a pool of 48 trial point group operations.

The static configuration has the point symmetry O_h .

Analysis of symmetry for dynamics (positions and initial velocities):
 Subroutine PRICEL returns:
 Original cell was already a primitive cell.

 Routine SETGRP: Setting up the symmetry group for a
 face centered cubic supercell.

 Subroutine GETGRP returns: Found 48 space group operations
 (whereof 48 operations were pure point group operations)
 out of a pool of 48 trial point group operations.

The dynamic configuration has the point symmetry O_h .

Analysis of magnetic symmetry:
 Subroutine PRICEL returns:
 Original cell was already a primitive cell.

 Subroutine MAGSYM returns: Found 48 space group operations
 (whereof 48 operations were pure point group operations)
 out of a pool of 48 trial space group operations
 (whereof 48 operations were pure point group operations)
 and found also     1 'primitive' translations

The magnetic configuration has the point symmetry O_h .

 KPOINTS: k-points

Automatic generation of k-mesh.
Space group operators:
 irot       det(A)        alpha          n_x          n_y          n_z        tau_x        tau_y        tau_z
    1     1.000000     0.000001     1.000000     0.000000     0.000000     0.000000     0.000000     0.000000
    2    -1.000000     0.000001     1.000000     0.000000     0.000000     0.000000     0.000000     0.000000
    3     1.000000   120.000000    -0.816497    -0.471404    -0.333333     0.000000     0.000000     0.000000
    4    -1.000000   120.000000    -0.816497    -0.471404    -0.333333     0.000000     0.000000     0.000000
    5     1.000000   120.000000     0.816497     0.471405     0.333333     0.000000     0.000000     0.000000
    6    -1.000000   120.000000     0.816497     0.471405     0.333333     0.000000     0.000000     0.000000
    7     1.000000    90.000000    -0.707107    -0.408248     0.577350     0.000000     0.000000     0.000000
    8    -1.000000    90.000000    -0.707107    -0.408248     0.577350     0.000000     0.000000     0.000000
    9     1.000000   180.000000     1.000000     0.000000     0.000000     0.000000     0.000000     0.000000
   10    -1.000000   180.000000     1.000000     0.000000     0.000000     0.000000     0.000000     0.000000
   11     1.000000    90.000000     0.707107    -0.408248     0.577350     0.000000     0.000000     0.000000
   12    -1.000000    90.000000     0.707107    -0.408248     0.577350     0.000000     0.000000     0.000000
   13     1.000000   180.000000     0.707107     0.408248    -0.577350     0.000000     0.000000     0.000000
   14    -1.000000   180.000000     0.707107     0.408248    -0.577350     0.000000     0.000000     0.000000
   15     1.000000   120.000000     0.816497    -0.471405    -0.333333     0.000000     0.000000     0.000000
   16    -1.000000   120.000000     0.816497    -0.471405    -0.333333     0.000000     0.000000     0.000000
   17     1.000000   120.000000     0.000000    -0.942809     0.333333     0.000000     0.000000     0.000000
   18    -1.000000   120.000000     0.000000    -0.942809     0.333333     0.000000     0.000000     0.000000
   19     1.000000    90.000000     0.707107     0.408248    -0.577350     0.000000     0.000000     0.000000
   20    -1.000000    90.000000     0.707107     0.408248    -0.577350     0.000000     0.000000     0.000000
   21     1.000000    90.000000     0.000000    -0.816497    -0.577350     0.000000     0.000000     0.000000
   22    -1.000000    90.000000     0.000000    -0.816497    -0.577350     0.000000     0.000000     0.000000
   23     1.000000   179.999999     0.500000     0.866025     0.000000     0.000000     0.000000     0.000000
   24    -1.000000   179.999999     0.500000     0.866025     0.000000     0.000000     0.000000     0.000000
   25     1.000000   120.000000     0.000000     0.942809    -0.333333     0.000000     0.000000     0.000000
   26    -1.000000   120.000000     0.000000     0.942809    -0.333333     0.000000     0.000000     0.000000
   27     1.000000   120.000000     0.000000     0.000000    -1.000000     0.000000     0.000000     0.000000
   28    -1.000000   120.000000     0.000000     0.000000    -1.000000     0.000000     0.000000     0.000000
   29     1.000000   179.999999     0.000000    -0.816497    -0.577350     0.000000     0.000000     0.000000
   30    -1.000000   179.999999     0.000000    -0.816497    -0.577350     0.000000     0.000000     0.000000
   31     1.000000    90.000000    -0.707107     0.408248    -0.577350     0.000000     0.000000     0.000000
   32    -1.000000    90.000000    -0.707107     0.408248    -0.577350     0.000000     0.000000     0.000000
   33     1.000000   179.999999     0.500000     0.288675     0.816497     0.000000     0.000000     0.000000
   34    -1.000000   179.999999     0.500000     0.288675     0.816497     0.000000     0.000000     0.000000
   35     1.000000    90.000000     0.000000     0.816497     0.577350     0.000000     0.000000     0.000000
   36    -1.000000    90.000000     0.000000     0.816497     0.577350     0.000000     0.000000     0.000000
   37     1.000000   120.000000    -0.816497     0.471405     0.333333     0.000000     0.000000     0.000000
   38    -1.000000   120.000000    -0.816497     0.471405     0.333333     0.000000     0.000000     0.000000
[...]
 k-point 16 :   0.2000 0.2000 0.0000  plane waves:    5958
 k-point 17 :   0.3000 0.2000 0.0000  plane waves:    5972
 k-point 18 :   0.4000 0.2000 0.0000  plane waves:    5952
 k-point 19 :   0.5000 0.2000 0.0000  plane waves:    5954
 k-point 20 :  -0.4000 0.2000 0.0000  plane waves:    5940
 k-point 21 :  -0.3000 0.2000 0.0000  plane waves:    5963
 k-point 22 :  -0.2000 0.2000 0.0000  plane waves:    5969
 k-point 23 :   0.3000 0.3000 0.0000  plane waves:    5958
 k-point 24 :   0.4000 0.3000 0.0000  plane waves:    5967
 k-point 25 :   0.5000 0.3000 0.0000  plane waves:    5951
 k-point 26 :  -0.4000 0.3000 0.0000  plane waves:    5943
 k-point 27 :  -0.3000 0.3000 0.0000  plane waves:    5945
 k-point 28 :   0.4000 0.4000 0.0000  plane waves:    5930
 k-point 29 :   0.5000 0.4000 0.0000  plane waves:    5941
 k-point 30 :  -0.4000 0.4000 0.0000  plane waves:    5928
 k-point 31 :   0.5000 0.5000 0.0000  plane waves:    5962
 k-point 32 :   0.3000 0.2000 0.1000  plane waves:    5960
 k-point 33 :   0.4000 0.2000 0.1000  plane waves:    5962
 k-point 34 :   0.5000 0.2000 0.1000  plane waves:    5955
 k-point 35 :  -0.4000 0.2000 0.1000  plane waves:    5944
 k-point 36 :   0.4000 0.3000 0.1000  plane waves:    5968
 k-point 37 :   0.5000 0.3000 0.1000  plane waves:    5962
 k-point 38 :  -0.4000 0.3000 0.1000  plane waves:    5959
 k-point 39 :  -0.3000 0.3000 0.1000  plane waves:    5947
 k-point 40 :  -0.2000 0.3000 0.1000  plane waves:    5958
 k-point 41 :   0.5000 0.4000 0.1000  plane waves:    5960
 k-point 42 :  -0.4000 0.4000 0.1000  plane waves:    5954
 k-point 43 :  -0.3000 0.4000 0.1000  plane waves:    5939
 k-point 44 :  -0.4000 0.5000 0.1000  plane waves:    5952
 k-point 45 :  -0.4000 0.4000 0.2000  plane waves:    5977
 k-point 46 :  -0.3000 0.4000 0.2000  plane waves:    5948
 k-point 47 :  -0.3000 0.5000 0.2000  plane waves:    5948

 maximum and minimum number of plane-waves per node :      5982     5928

 maximum number of plane-waves:      5982
 maximum index in each direction:
   IXMAX=   13   IYMAX=   12   IZMAX=   12
   IXMIN=  -13   IYMIN=  -13   IZMIN=  -12

 WARNING: aliasing errors must be expected set NGX to  54 to avoid them
 WARNING: aliasing errors must be expected set NGY to  52 to avoid them
 NGZ is ok and might be reduce to  50
 aliasing errors are usually negligible using standard VASP settings
 and one can safely disregard these warnings

 serial   3D FFT for wavefunctions
 parallel 3D FFT for charge:
    minimum data exchange during FFTs selected (reduces bandwidth)

 Broyden mixing: mesh for mixing (old mesh)
   NGX = 25   NGY = 25   NGZ = 25
  (NGX  =100   NGY  =100   NGZ  =100)
  gives a total of  15625 points

 initial charge density was supplied:
 charge density of overlapping atoms calculated
 number of electron      84.0000000 magnetization       6.0000000
 keeping initial charge density in first step

 Maximum index for non-local projection operator         9928
 Maximum index for augmentation-charges         7725 (set IRDMAX)

 First call to EWALD:  gamma=   0.293
 Maximum number of real-space cells 3x 3x 3
 Maximum number of reciprocal cells 3x 3x 3

 FEWALD executed in parallel

----------------------------------------- Iteration    1(   1)  ---------------------------------------

 BZINTS: Fermi energy: 12.000600; 84.000000 electrons
         Band energy:-317.754754;  BLOECHL correction: -0.114579

 eigenvalue-minimisations  : 10568
 total energy-change (2. order) : 0.6483238E+03  (-0.4418413E+04)
 number of electron      84.0000000 magnetization       6.0000000
 augmentation part       84.0000000 magnetization       6.0000000

 Free energy of the ion-electron system (eV)
  alpha Z        PSCENC =       310.66020355
  Ewald energy   TEWEN  =     -4834.07732905
  -Hartree energ DENC   =     -2582.65381742
  -exchange      EXHF   =         0.00000000
  -V(xc)+E(xc)   XCENC  =       327.00146329
  PAW double counting   =      5123.26979619    -5096.34507177
  entropy T*S    EENTRO =         0.00000000
  eigenvalues    EBANDS =      -317.75475397
  atomic energy  EATOM  =      7718.22330708
  Solvation  Ediel_sol  =         0.00000000
  free energy    TOTEN  =       648.32379789 eV

  energy without entropy =      648.32379789  energy(sigma->0) =      648.32379789

[...]

 eigenvalue-minimisations  : 13040
 total energy-change (2. order) :-0.6584848E+03  (-0.6441739E+03)
 number of electron      84.0000000 magnetization       6.0000000
 augmentation part       84.0000000 magnetization       6.0000000

[...]

 Broyden mixing:
  rms(total) = 0.19047E+01    rms(broyden)= 0.19044E+01
  rms(prec ) = 0.34732E+01
  weight for this iteration     100.00

[...]

 eigenvalues of (default mixing * dielectric matrix)
  average eigenvalue GAMMA=   0.6748
  0.6748

[...]

 eigenvalue-minimisations  : 10761
 total energy-change (2. order) : 0.1176197E-04  (-0.8247738E-05)
 number of electron      84.0000027 magnetization       2.0004656
 augmentation part       15.8789064 magnetization       0.2452918

 Broyden mixing:
  rms(total) = 0.14272E-02    rms(broyden)= 0.14269E-02
  rms(prec ) = 0.31406E-02
  weight for this iteration     100.00

 eigenvalues of (default mixing * dielectric matrix)
  average eigenvalue GAMMA=   1.2214
  3.0136  2.4113  1.2351  0.8711  0.8711  0.9469  0.9469  0.7489  0.6387  0.5298

[...]

----------------------------------------- Iteration    1(  16)  ---------------------------------------

[...]

 eigenvalue-minimisations  :  9303
 total energy-change (2. order) :-0.4691714E-05  (-0.3098507E-05)
 number of electron      84.0000027 magnetization       2.0004656
 augmentation part       15.8789064 magnetization       0.2452918

 Free energy of the ion-electron system (eV)
  alpha Z        PSCENC =       310.66020355
  Ewald energy   TEWEN  =     -4834.07732905
  -Hartree energ DENC   =     -2685.24776702
  -exchange      EXHF   =         0.00000000
  -V(xc)+E(xc)   XCENC  =       332.58192645
  PAW double counting   =      5381.44094702    -5358.21842905
  entropy T*S    EENTRO =         0.00000000
  eigenvalues    EBANDS =      -917.30350926
  atomic energy  EATOM  =      7718.22330708
  Solvation  Ediel_sol  =         0.00000000
  free energy    TOTEN  =       -51.94065029 eV

  energy without entropy =      -51.94065029  energy(sigma->0) =      -51.94065029

 average (electrostatic) potential at core
  the test charge radii are     1.1097  1.1760  1.1488  0.7167
  (the norm of the test charge is              1.0000)
       1 -38.2911       2 -38.2911       3 -41.4189       4 -87.8762       5 -78.6794
       6 -78.6794       7 -78.6794       8 -78.6794       9 -78.6794      10 -78.6794

 E-fermi :   3.6395     XC(G=0):  -8.1726     alpha+bet : -7.0632

 spin component 1

 k-point     1 :       0.0000    0.0000    0.0000
  band No.  band energies     occupation
      1     -33.4176      1.00000
      2     -33.4176      1.00000
      3     -33.4176      1.00000
      4     -25.8597      1.00000
      5     -25.8490      1.00000
      6     -22.3863      1.00000
      7     -22.1950      1.00000
      8     -22.1950      1.00000
      9     -21.8987      1.00000
     10     -21.8987      1.00000
     11     -21.8987      1.00000
     12     -10.0719      1.00000
     13     -10.0719      1.00000
     14     -10.0719      1.00000
     15      -9.9788      1.00000
     16      -9.9788      1.00000
     17      -9.9788      1.00000
     18      -9.4912      1.00000
     19      -9.4912      1.00000
     20      -9.4625      1.00000
     21      -9.4625      1.00000
     22      -9.4625      1.00000
     23      -6.0273      1.00000
     24      -4.8376      1.00000
     25      -4.8376      1.00000
     26      -4.4258      1.00000
     27      -4.4257      1.00000
     28      -4.4257      1.00000
     29      -4.1441      1.00000
     30      -4.1441      1.00000
     31      -4.1441      1.00000
     32      -3.3201      1.00000
     33      -3.3201      1.00000
     34      -3.3201      1.00000
     35      -3.3159      1.00000
     36      -3.3159      1.00000
     37      -3.3159      1.00000
     38      -2.9282      1.00000
     39      -2.9282      1.00000
     40      -2.9282      1.00000
     41      -2.2354      1.00000
     42       3.6251      1.00000
     43       3.6251      1.00000
     44       3.6251      1.00000
     45       4.1808      0.00000
     46       4.5430      0.00000
     47       4.5430      0.00000
     48       4.5430      0.00000
     49       6.0427      0.00000
     50       6.0427      0.00000
     51       7.8796      0.00000
     52       8.0357      0.00000
     53       8.1918      0.00000
     54       8.2166      0.00000
     55       8.2409      0.00000
     56       8.3182      0.00000

[...]

 spin component 2

[...]

 k-point    47 :      -0.3000    0.5000    0.2000
  band No.  band energies     occupation
      1     -32.5754      1.00000
      2     -32.5754      1.00000
      3     -32.5754      1.00000
      4     -25.8422      1.00000
      5     -25.8412      1.00000
      6     -22.3336      1.00000
      7     -22.1730      1.00000
      8     -22.1617      1.00000
      9     -21.8604      1.00000
     10     -21.8570      1.00000
     11     -21.8564      1.00000
     12     -10.0220      1.00000
     13     -10.0104      1.00000
     14      -9.9994      1.00000
     15      -9.9804      1.00000
     16      -9.9515      1.00000
     17      -9.9422      1.00000
     18      -9.4721      1.00000
     19      -9.4607      1.00000
     20      -9.4508      1.00000
     21      -9.4469      1.00000
     22      -9.4422      1.00000
     23      -5.6946      1.00000
     24      -5.0294      1.00000
     25      -4.7904      1.00000
     26      -4.3460      1.00000
     27      -4.2907      1.00000
     28      -4.1992      1.00000
     29      -4.0074      1.00000
     30      -3.9972      1.00000
     31      -3.9656      1.00000
     32      -3.5197      1.00000
     33      -3.4557      1.00000
     34      -3.4199      1.00000
     35      -3.3204      1.00000
     36      -3.3203      1.00000
     37      -3.3045      1.00000
     38      -2.9943      1.00000
     39      -2.9603      1.00000
     40      -2.9276      1.00000
     41      -1.7503      1.00000
     42       4.2576      0.00000
     43       4.5042      0.00000
     44       4.6582      0.00000
     45       4.9776      0.00000
     46       4.9810      0.00000
     47       4.9825      0.00000
     48       6.3223      0.00000
     49       6.5905      0.00000
     50       6.7951      0.00000
     51       7.4174      0.00000
     52       7.6504      0.00000
     53       7.6867      0.00000
     54       7.9604      0.00000
     55       8.1473      0.00000
     56       8.3443      0.00000

 soft charge-density along one line, spin component           1
         0         1         2         3         4         5         6         7         8         9
 total charge-density along one line

 soft charge-density along one line, spin component           2
         0         1         2         3         4         5         6         7         8         9
 total charge-density along one line

------------------------ aborting loop because EDIFF is reached ----------------------------------------

 total charge

# of ion     s       p       d       tot
  1        1.935   5.349   0.010   7.294
  2        1.935   5.349   0.010   7.294
  3        0.242   6.176   2.275   8.693
  4        1.304   0.144   9.677  11.124
  5        1.738   4.343   0.000   6.081
  6        1.739   4.339   0.000   6.078
  7        1.738   4.343   0.000   6.081
  8        1.738   4.337   0.000   6.076
  9        1.738   4.337   0.000   6.076
 10        1.739   4.339   0.000   6.078
tot       15.847  43.056  11.971  70.874

 magnetization (x)

[...]

  FORCE on cell =-STRESS in cart. coord.  units (eV):
  Direction    XX          YY          ZZ          XY          YZ          ZX
  Alpha Z   310.66020   310.66020   310.66020
  Ewald   -1611.36193 -1611.36195 -1611.36194     0.00000    -0.00001     0.00000
  Hartree   895.06006   895.06007   895.06007     0.00002    -0.00001     0.00001
  E(xc)    -414.76154  -414.76158  -414.76159     0.00004     0.00001     0.00003
  Local    -575.24059  -575.24108  -575.24121     0.00035     0.00018     0.00025
  n-local  -333.15199  -334.01941  -332.80811     0.27815     0.15871    -1.50117
  augment   227.67175   227.67196   227.67202    -0.00018    -0.00007    -0.00013
  Kinetic  1501.95339  1502.31880  1499.28920    -2.23090     0.04000     3.31788
  Fock        0.00000     0.00000     0.00000     0.00000     0.00000     0.00000
  Total      -0.11166    -0.11166    -0.11166     0.00000     0.00000     0.00000
  in kB      -0.80851    -0.80851    -0.80851     0.00000     0.00000     0.00000

 VOLUME and BASIS-vectors are now :
  energy-cutoff  :      520.00
  volume of cell :      221.27
      direct lattice vectors                 reciprocal lattice vectors
     6.789073599 -0.000000132 -0.000000093     0.147295499 -0.085041103 -0.060133141
     3.394537083  5.879510228 -0.000000047     0.000000002  0.170082192 -0.060133136
     3.394537083  1.959836699  5.543255409     0.000000002  0.000000000  0.180399408

  length of vectors
     6.789073599  6.789073760  6.789073753     0.180399412  0.180399407  0.180399408

 FORCES acting on ions
    electron-ion (+dipol)            ewald-force                    non-local-force                 convergence-correction
   0.466E-05 -.158E-05 -.861E-06   -.507E-05 0.178E-05 0.969E-06   0.000E+00 -.304E-17 -.867E-17   0.539E-08 -.566E-08 -.346E-08
   -.466E-05 0.158E-05 0.861E-06   0.507E-05 -.178E-05 -.969E-06   -.130E-17 0.520E-17 0.607E-17   -.539E-08 0.566E-08 0.346E-08
   0.347E-13 0.236E-13 0.232E-13   0.568E-13 0.142E-13 -.284E-13   0.000E+00 0.165E-22 -.132E-22   -.164E-13 -.306E-13 0.217E-13
   -.643E-12 -.770E-12 -.180E-11   -.142E-13 -.711E-14 -.853E-13   -.794E-22 0.265E-22 -.529E-22   0.596E-13 0.630E-13 -.138E-14
   -.132E+03 0.762E+02 -.108E+03   0.145E+03 -.835E+02 0.118E+03   -.126E+02 0.726E+01 -.103E+02   -.123E-01 0.711E-02 -.100E-01
   0.132E+03 0.762E+02 -.108E+03   -.145E+03 -.835E+02 0.118E+03   0.126E+02 0.726E+01 -.103E+02   0.123E-01 0.710E-02 -.100E-01
   0.132E+03 -.762E+02 0.108E+03   -.145E+03 0.835E+02 -.118E+03   0.126E+02 -.726E+01 0.103E+02   0.123E-01 -.711E-02 0.100E-01
   -.652E-05 -.152E+03 -.108E+03   0.107E-04 0.167E+03 0.118E+03   -.105E-05 -.145E+02 -.103E+02   0.116E-05 -.142E-01 -.100E-01
   0.652E-05 0.152E+03 0.108E+03   -.107E-04 -.167E+03 -.118E+03   0.105E-05 0.145E+02 0.103E+02   -.116E-05 0.142E-01 0.100E-01
   -.132E+03 -.762E+02 0.108E+03   0.145E+03 0.835E+02 -.118E+03   -.126E+02 -.726E+01 0.103E+02   -.123E-01 -.710E-02 0.100E-01
   -.162E-11 -.536E-11 -.136E-11   -.568E-13 -.142E-13 -.142E-13   0.178E-14 0.000E+00 0.178E-14   0.354E-12 0.167E-12 -.234E-12

 POSITION                                       TOTAL-FORCE (eV/Angst)
      3.39454      1.95984      1.38581         0.000000      0.000000      0.000000
     10.18361      5.87951      4.15744         0.000000      0.000000      0.000000
      0.00000      0.00000      0.00000         0.000000      0.000000      0.000000
      6.78907      3.91967      2.77163         0.000000      0.000000      0.000000
      4.85182      5.03815      1.18987        -0.011550      0.006669     -0.009431
      8.72633      5.03815      1.18987         0.011550      0.006669     -0.009431
      8.72633      2.80120      4.35339         0.011550     -0.006669      0.009431
      6.78907      1.68273      1.18987         0.000000     -0.013337     -0.009431
      6.78907      6.15662      4.35339         0.000000      0.013337      0.009431
      4.85182      2.80120      4.35339        -0.011550     -0.006669      0.009431
    total drift:                                0.000000      0.000000      0.000000

  FREE ENERGIE OF THE ION-ELECTRON SYSTEM (eV)
  free  energy   TOTEN  =       -51.94065029 eV

  energy  without entropy=      -51.94065029  energy(sigma->0) =      -51.94065029

 total charge

[...]

 magnetization (x)

# of ion     s       p       d       tot
  1        0.004   0.003   0.004   0.011
  2        0.004   0.003   0.004   0.011
  3        0.018   0.008   1.219   1.246
  4       -0.002   0.065  -0.001   0.062
  5        0.002   0.013   0.000   0.015
  6        0.003   0.006   0.000   0.009
  7        0.002   0.013   0.000   0.015
  8        0.002   0.012   0.000   0.013
  9        0.002   0.012   0.000   0.013
 10        0.003   0.006   0.000   0.009
tot        0.038   0.139   1.225   1.403

 BZINTS: Fermi energy:  3.639464; 84.000000 electrons
         Band energy:-917.303509;  BLOECHL correction: -0.001050